35 853
69 197
17 33
85 122
71 43
34 136
78 109
28 139
97 187
89 52
92 80
52 172
84 96
57 133
58 31
32 58
9 87
3 151
71 59
76 57
1 19
91 162
8 59
9 9
43 19
66 61
36 172
63 55
70 34
93 147
74 122
32 122
53 49
13 25
85 111
46 109
